c Generated map
c Size: 9 * 9, weights in range: 1 to 10, walls: True, with ratio 0.1
c dim 3 of 8
c
p sp 81 118
c graph contains 81 nodes and 118 arcs
c
a 1 10 7
a 10 1 7
a 1 2 5
a 2 1 5
a 2 11 5
a 11 2 5
a 2 3 8
a 3 2 8
a 3 12 2
a 12 3 2
a 3 4 4
a 4 3 4
a 4 13 8
a 13 4 8
a 6 15 9
a 15 6 9
a 6 7 7
a 7 6 7
a 7 16 8
a 16 7 8
a 7 8 6
a 8 7 6
a 8 17 1
a 17 8 1
a 8 9 2
a 9 8 2
a 9 18 5
a 18 9 5
a 10 19 3
a 19 10 3
a 10 11 6
a 11 10 6
a 11 20 4
a 20 11 4
a 11 12 7
a 12 11 7
a 12 21 9
a 21 12 9
a 12 13 10
a 13 12 10
a 13 22 6
a 22 13 6
a 15 24 8
a 24 15 8
a 15 16 2
a 16 15 2
a 16 25 5
a 25 16 5
a 16 17 7
a 17 16 7
a 17 26 2
a 26 17 2
a 17 18 10
a 18 17 10
a 19 28 8
a 28 19 8
a 19 20 7
a 20 19 7
a 20 29 2
a 29 20 2
a 20 21 4
a 21 20 4
a 21 30 3
a 30 21 3
a 21 22 3
a 22 21 3
a 22 31 5
a 31 22 5
a 22 23 3
a 23 22 3
a 23 32 5
a 32 23 5
a 23 24 3
a 24 23 3
a 24 33 1
a 33 24 1
a 24 25 5
a 25 24 5
a 25 34 1
a 34 25 1
a 25 26 2
a 26 25 2
a 26 35 2
a 35 26 2
a 28 37 7
a 37 28 7
a 28 29 5
a 29 28 5
a 29 38 2
a 38 29 2
a 29 30 2
a 30 29 2
a 30 39 1
a 39 30 1
a 30 31 7
a 31 30 7
a 31 40 7
a 40 31 7
a 31 32 3
a 32 31 3
a 32 41 10
a 41 32 10
a 32 33 6
a 33 32 6
a 33 42 9
a 42 33 9
a 33 34 7
a 34 33 7
a 34 43 2
a 43 34 2
a 34 35 1
a 35 34 1
a 35 36 9
a 36 35 9
a 36 45 9
a 45 36 9
a 37 38 3
a 38 37 3
a 38 47 5
a 47 38 5
a 38 39 5
a 39 38 5
a 39 48 6
a 48 39 6
a 39 40 5
a 40 39 5
a 40 49 2
a 49 40 2
a 40 41 8
a 41 40 8
a 41 50 6
a 50 41 6
a 41 42 4
a 42 41 4
a 42 43 1
a 43 42 1
a 43 52 7
a 52 43 7
a 45 54 3
a 54 45 3
a 47 56 5
a 56 47 5
a 47 48 6
a 48 47 6
a 48 57 5
a 57 48 5
a 48 49 8
a 49 48 8
a 49 50 7
a 50 49 7
a 50 59 3
a 59 50 3
a 52 61 10
a 61 52 10
a 52 53 9
a 53 52 9
a 53 62 1
a 62 53 1
a 53 54 2
a 54 53 2
a 54 63 3
a 63 54 3
a 56 65 3
a 65 56 3
a 56 57 2
a 57 56 2
a 57 66 8
a 66 57 8
a 59 68 3
a 68 59 3
a 59 60 2
a 60 59 2
a 60 69 4
a 69 60 4
a 60 61 4
a 61 60 4
a 61 70 7
a 70 61 7
a 61 62 2
a 62 61 2
a 62 71 3
a 71 62 3
a 62 63 7
a 63 62 7
a 63 72 2
a 72 63 2
a 64 73 5
a 73 64 5
a 64 65 5
a 65 64 5
a 65 74 10
a 74 65 10
a 65 66 7
a 66 65 7
a 66 75 1
a 75 66 1
a 66 67 6
a 67 66 6
a 67 76 5
a 76 67 5
a 67 68 3
a 68 67 3
a 68 77 4
a 77 68 4
a 68 69 9
a 69 68 9
a 69 78 3
a 78 69 3
a 69 70 8
a 70 69 8
a 70 79 8
a 79 70 8
a 70 71 9
a 71 70 9
a 71 80 1
a 80 71 1
a 71 72 1
a 72 71 1
a 72 81 6
a 81 72 6
a 73 74 10
a 74 73 10
a 74 75 1
a 75 74 1
a 75 76 3
a 76 75 3
a 76 77 2
a 77 76 2
a 77 78 5
a 78 77 5
a 78 79 6
a 79 78 6
a 79 80 7
a 80 79 7
a 80 81 2
a 81 80 2
